data;

set A := 523681 599082 155862 53432 351901 714052 681962 733631 532571 744389 252065 281879 84617 614064 921894 99142 41437 24350 305741 308940 816920 120262 775507 395748 370950 560439 897632 227651 251834 673818 732998 891798 554580 614514 734848 186629 684156 667677 276918 226484 773797 673746 444085 89214 829005 756386 92281 999354 421369 325368 782693 888632 1403 844443 477383 655874 743854 584425 378518 805789 27893 835611 156853 27207 457537 771142 780847 529400 467082 102933 264762 459235 138130 5073 884215 805940 440424 752923 576877 26384 554144 655662 689938 753050 573788 937887 94468 408810 64904 757343 745802 735829 374487 919989 618389 813738 875977 987013 22979 352305;
param T := 25000000;

end;
